/*********************************************
 * OPL 22.1.0.0 Data
 * Author: Hello
 * Creation Date: Mar 4, 2023 at 11:35:16 AM
 *********************************************/
n = 12;
m = 2;
p = [5,4,5,4,4,5,5,5,5,5,5,4];
T = 15; 


B = 56;
y = [ #<_x: 4, _y: 10, data: 1>#,
#<_x: 9, _y: 8, data: 1>#,
#<_x: 10, _y: 4, data: 0>#,
#<_x: 8, _y: 9, data: 0>#
];
q = [3,1,5,4,5,1,3,2,3,2,5,4];
